num_offers = 20;
num_halls = 10;
start=[7,40,11,29,16,64,61,29,17,14,9,80,24,4,15,29,32,17,16,17];
end=[71,98,54,48,42,73,67,77,43,57,93,92,37,68,67,97,67,60,38,83];
price=[3647,1962,3887,1221,1446,266,176,3537,2467,1862,2783,719,282,2971,865,3784,2430,4295,652,674];
requirement=[536,634,239,438,402,324,521,428,827,258,300,623,680,638,711,735,422,909,556,691];
capacity=[647,932,208,833,839,996,808,941,930,629];
